p cnf 29 79
a 8 10 0
e 1 2 3 4 5 6 7 9 11 12 13 14 15 16 17 18 19 20 21 22 23 24 25 26 27 28 29 0
3 -2 0
3 1 0
2 -1 -3 0
-3 4 -5 0
3 -4 -5 0
-3 -4 5 0
3 4 5 0
-1 -5 -6 0
1 5 -6 0
-1 5 6 0
1 -5 6 0
-8 -6 0
-8 -7 0
6 7 8 0
-9 -10 -11 0
9 10 -11 0
-9 10 11 0
9 -10 11 0
12 8 0
12 -11 0
-8 11 -12 0
-13 7 0
-13 5 0
-7 -5 13 0
-14 2 -15 0
14 -2 -15 0
-14 -2 15 0
14 2 15 0
-16 -14 0
-16 15 0
14 -15 16 0
-17 -13 0
-17 16 0
13 -16 17 0
-5 -4 -18 0
5 4 -18 0
-5 4 18 0
5 -4 18 0
9 -18 -19 0
-9 18 -19 0
9 18 19 0
-9 -18 19 0
20 -19 0
20 19 0
-20 -6 -21 0
20 6 -21 0
-20 6 21 0
20 -6 21 0
-17 21 -22 0
17 -21 -22 0
-17 -21 22 0
17 21 22 0
-9 -2 -23 0
9 2 -23 0
-9 2 23 0
9 -2 23 0
-24 7 0
-24 -23 0
-7 23 24 0
-26 -25 0
-26 18 0
25 -18 26 0
-27 -24 0
-27 26 0
24 -26 27 0
28 -22 0
28 27 0
22 -27 -28 0
-29 12 0
-29 28 0
-12 -28 29 0
18 13 -3 0
21 13 2 -22 0
-25 2 -6 29 -1 0
6 -12 -1 0
27 4 -17 -7 13 2 20 -23 0
-3 -28 27 -11 13 -25 0
3 -13 -29 0
29 0
